(set-logic SLHV)
(declare-hvar emp IntHeap)
(declare-locvar nil IntLoc)
(declare-datatype pt_record_0 ((Pt_R_0 (loc IntLoc))))
(declare-datatype pt_record_1 ((Pt_R_1 (data Int))))
(declare-const invalidFree_2 Bool)
(declare-const loc_2 Int)
(declare-const invalidFree_1 Bool)
(declare-hvar H_1 IntHeap)
(declare-hvar H_2 IntHeap)
(declare-hvar AH_1 IntHeap)
(declare-hvar AH_2 IntHeap)
(declare-const $r_main0_1 Int)
(declare-const $r_main0_2 Int)
(declare-const $i8_foo0_1 Int)
(declare-const $i8_foo0_2 Int)
(declare-const $i7_main0_1 Int)
(declare-const $i7_main0_2 Int)
(declare-const $i7_foo0_1 Int)
(declare-const $i7_foo0_2 Int)
(declare-const $i6_main0_1 Int)
(declare-const $i6_main0_2 Int)
(declare-const $i6_foo0_1 Int)
(declare-const $i6_foo0_2 Int)
(declare-const $i5_main0_1 Int)
(declare-const $i5_main0_2 Int)
(declare-const $i4_foo0_1 Int)
(declare-const $i4_foo0_2 Int)
(declare-const $i2_main0_1 Int)
(declare-const $i2_main0_2 Int)
(declare-const $i2_foo0_1 Int)
(declare-const $i2_foo0_2 Int)
(declare-const $i1_main0_1 Int)
(declare-const $i1_main0_2 Int)
(declare-const $i1_foo0_1 Int)
(declare-const $i1_foo0_2 Int)
(declare-const $i15_main0_1 Int)
(declare-const $i15_main0_2 Int)
(declare-const $i14_main0_1 Int)
(declare-const $i14_main0_2 Int)
(declare-const $i0_main0_1 Int)
(declare-const $i0_main0_2 Int)
(declare-const $i0_foo0_1 Int)
(declare-const $i0_foo0_2 Int)
(declare-const $M.0_1 Int)
(declare-const $M.0_2 Int)
(declare-locvar $p9_main0_1 IntLoc)
(declare-locvar $p9_main0_2 IntLoc)
(declare-locvar $p8_main0_1 IntLoc)
(declare-locvar $p8_main0_2 IntLoc)
(declare-locvar $p5_foo0_1 IntLoc)
(declare-locvar $p5_foo0_2 IntLoc)
(declare-locvar $p4_main0_1 IntLoc)
(declare-locvar $p4_main0_2 IntLoc)
(declare-locvar $p3_main0_1 IntLoc)
(declare-locvar $p3_main0_2 IntLoc)
(declare-locvar $p3_foo0_1 IntLoc)
(declare-locvar $p3_foo0_2 IntLoc)
(declare-locvar $p24_main0_1 IntLoc)
(declare-locvar $p24_main0_2 IntLoc)
(declare-locvar $p23_main0_1 IntLoc)
(declare-locvar $p23_main0_2 IntLoc)
(declare-locvar $p22_main0_1 IntLoc)
(declare-locvar $p22_main0_2 IntLoc)
(declare-locvar $p21_main0_1 IntLoc)
(declare-locvar $p21_main0_2 IntLoc)
(declare-locvar $p20_main0_1 IntLoc)
(declare-locvar $p20_main0_2 IntLoc)
(declare-locvar $p19_main0_1 IntLoc)
(declare-locvar $p19_main0_2 IntLoc)
(declare-locvar $p18_main0_1 IntLoc)
(declare-locvar $p18_main0_2 IntLoc)
(declare-locvar $p17_main0_1 IntLoc)
(declare-locvar $p17_main0_2 IntLoc)
(declare-locvar $p16_main0_1 IntLoc)
(declare-locvar $p16_main0_2 IntLoc)
(declare-locvar $p13_main0_1 IntLoc)
(declare-locvar $p13_main0_2 IntLoc)
(declare-locvar $p12_main0_1 IntLoc)
(declare-locvar $p12_main0_2 IntLoc)
(declare-locvar $p11_main0_1 IntLoc)
(declare-locvar $p11_main0_2 IntLoc)
(declare-locvar $p10_main0_1 IntLoc)
(declare-locvar $p10_main0_2 IntLoc)
(declare-locvar $M.3_1 IntLoc)
(declare-locvar $M.3_2 IntLoc)
(declare-locvar $M.1_1 IntLoc)
(declare-locvar $M.1_2 IntLoc)
(declare-const loc_1 Int)
(declare-const $i2_foo01_2 Int)
(declare-const invalidFree_0 Bool)
(declare-const $r_main0_0 Int)
(declare-const $i8_foo0_0 Int)
(declare-const $i7_foo0_0 Int)
(declare-const $i6_foo0_0 Int)
(declare-const $i4_foo0_0 Int)
(declare-const $i2_foo0_0 Int)
(declare-const $i15_main0_0 Int)
(declare-const $i14_main0_0 Int)
(declare-locvar $p5_foo0_0 IntLoc)
(declare-locvar $p3_foo0_0 IntLoc)
(declare-locvar $p24_main0_0 IntLoc)
(declare-locvar $p23_main0_0 IntLoc)
(declare-locvar $p22_main0_0 IntLoc)
(declare-locvar $p21_main0_0 IntLoc)
(declare-locvar $p20_main0_0 IntLoc)
(declare-locvar $p19_main0_0 IntLoc)
(declare-locvar $p18_main0_0 IntLoc)
(declare-locvar $p17_main0_0 IntLoc)
(declare-locvar $p16_main0_0 IntLoc)
(declare-locvar $p13_main0_0 IntLoc)
(declare-locvar $p12_main0_0 IntLoc)
(declare-hvar H3_1 IntHeap)
(declare-hvar AH2_1 IntHeap)
(declare-locvar $p9_main01_1 IntLoc)
(declare-locvar $p8_main01_1 IntLoc)
(declare-locvar $p4_main01_1 IntLoc)
(declare-locvar $p3_main01_1 IntLoc)
(declare-locvar $p11_main01_1 IntLoc)
(declare-locvar $p10_main01_1 IntLoc)
(declare-const $i7_main01_1 Int)
(declare-const $i6_main01_1 Int)
(declare-const $i5_main01_1 Int)
(declare-const $i2_main01_1 Int)
(declare-const $i1_main01_1 Int)
(declare-const $i1_foo01_1 Int)
(declare-const $i0_main01_1 Int)
(declare-const $i0_foo01_1 Int)
(declare-locvar $M.33_1 IntLoc)
(declare-locvar $M.12_1 IntLoc)
(declare-const $M.02_1 Int)
(declare-hvar h1_1 IntHeap)
(declare-const d5_1 Int)
(declare-hvar H2_1 IntHeap)
(declare-locvar $M.32_1 IntLoc)
(declare-locvar l3_1 IntLoc)
(declare-hvar AH1_1 IntHeap)
(declare-locvar l4_1 IntLoc)
(declare-const d4_1 Int)
(declare-const d3_1 Int)
(declare-hvar H1_1 IntHeap)
(declare-locvar l1_1 IntLoc)
(declare-hvar AH_0 IntHeap)
(declare-locvar l2_1 IntLoc)
(declare-const d2_1 Int)
(declare-const d1_1 Int)
(declare-hvar H_0 IntHeap)
(declare-locvar $M.31_1 IntLoc)
(declare-locvar $M.11_1 IntLoc)
(declare-const $M.01_1 Int)
(declare-const loc_0 Int)
(assert
 (let (($x1177 (= loc_2 4)))
 (let (($x1245 (= invalidFree_2 invalidFree_1)))
 (let (($x1146 (= H_2 H_1)))
 (let (($x1147 (and (and true (= AH_2 AH_1)) $x1146)))
 (let (($x1139 (= $r_main0_2 $r_main0_1)))
 (let (($x1136 (= $i8_foo0_2 $i8_foo0_1)))
 (let (($x1133 (= $i7_main0_2 $i7_main0_1)))
 (let (($x1130 (= $i7_foo0_2 $i7_foo0_1)))
 (let (($x1127 (= $i6_main0_2 $i6_main0_1)))
 (let (($x1124 (= $i6_foo0_2 $i6_foo0_1)))
 (let (($x1121 (= $i5_main0_2 $i5_main0_1)))
 (let (($x1118 (= $i4_foo0_2 $i4_foo0_1)))
 (let (($x1115 (= $i2_main0_2 $i2_main0_1)))
 (let (($x1162 (= $i2_foo0_2 $i2_foo0_1)))
 (let (($x1112 (= $i1_main0_2 $i1_main0_1)))
 (let (($x1109 (= $i1_foo0_2 $i1_foo0_1)))
 (let (($x1106 (= $i15_main0_2 $i15_main0_1)))
 (let (($x1103 (= $i14_main0_2 $i14_main0_1)))
 (let (($x1100 (= $i0_main0_2 $i0_main0_1)))
 (let (($x1101 (and (and (and true (= $M.0_2 $M.0_1)) (= $i0_foo0_2 $i0_foo0_1)) $x1100)))
 (let (($x1113 (and (and (and (and $x1101 $x1103) $x1106) $x1109) $x1112)))
 (let (($x1168 (and (and (and (and (and (and $x1113 $x1162) $x1115) $x1118) $x1121) $x1124) $x1127)))
 (let (($x1172 (and (and (and (and $x1168 $x1130) $x1133) $x1136) $x1139)))
 (let (($x1090 (= $p9_main0_2 $p9_main0_1)))
 (let (($x1087 (= $p8_main0_2 $p8_main0_1)))
 (let (($x1084 (= $p5_foo0_2 $p5_foo0_1)))
 (let (($x1081 (= $p4_main0_2 $p4_main0_1)))
 (let (($x1078 (= $p3_main0_2 $p3_main0_1)))
 (let (($x1075 (= $p3_foo0_2 $p3_foo0_1)))
 (let (($x1072 (= $p24_main0_2 $p24_main0_1)))
 (let (($x1069 (= $p23_main0_2 $p23_main0_1)))
 (let (($x1066 (= $p22_main0_2 $p22_main0_1)))
 (let (($x1063 (= $p21_main0_2 $p21_main0_1)))
 (let (($x1060 (= $p20_main0_2 $p20_main0_1)))
 (let (($x1057 (= $p19_main0_2 $p19_main0_1)))
 (let (($x1054 (= $p18_main0_2 $p18_main0_1)))
 (let (($x1051 (= $p17_main0_2 $p17_main0_1)))
 (let (($x1048 (= $p16_main0_2 $p16_main0_1)))
 (let (($x1045 (= $p13_main0_2 $p13_main0_1)))
 (let (($x1042 (= $p12_main0_2 $p12_main0_1)))
 (let (($x1039 (= $p11_main0_2 $p11_main0_1)))
 (let (($x1036 (= $p10_main0_2 $p10_main0_1)))
 (let (($x1037 (and (and (and true (= $M.1_2 $M.1_1)) (= $M.3_2 $M.3_1)) $x1036)))
 (let (($x1055 (and (and (and (and (and (and $x1037 $x1039) $x1042) $x1045) $x1048) $x1051) $x1054)))
 (let (($x1073 (and (and (and (and (and (and $x1055 $x1057) $x1060) $x1063) $x1066) $x1069) $x1072)))
 (let (($x1091 (and (and (and (and (and (and $x1073 $x1075) $x1078) $x1081) $x1084) $x1087) $x1090)))
 (let (($x1252 (and (and (and (or true invalidFree_1) (and true true)) $x1091) $x1172)))
 (let (($x1016 (= loc_1 2)))
 (let (($x1157 (and $x1016 (not (= $i1_foo0_1 1)))))
 (let (($x1153 (= loc_2 3)))
 (let (($x1131 (and (and (and (and (and (and $x1113 $x1115) $x1118) $x1121) $x1124) $x1127) $x1130)))
 (let (($x1140 (and (and (and $x1131 $x1133) $x1136) $x1139)))
 (let (($x1026 (= $i2_foo0_2 $i2_foo01_2)))
 (let (($x1027 (and $x1026 true)))
 (let (($x1023 (= $i2_foo01_2 0)))
 (let (($x1239 (or $x1023 invalidFree_1)))
 (let (($x1247 (and (and (and (and (and (and $x1239 $x1027) $x1091) $x1140) $x1147) $x1245) $x1153)))
 (let (($x1021 (= $i1_foo0_1 1)))
 (let (($x1022 (and $x1016 $x1021)))
 (let (($x1257 (and (=> $x1022 $x1247) (=> $x1157 (and (and (and $x1252 $x1147) $x1245) $x1177)))))
 (let (($x1234 (= invalidFree_1 invalidFree_0)))
 (let (($x1012 (= $r_main0_1 $r_main0_0)))
 (let (($x1008 (= $i8_foo0_1 $i8_foo0_0)))
 (let (($x1004 (= $i7_foo0_1 $i7_foo0_0)))
 (let (($x1000 (= $i6_foo0_1 $i6_foo0_0)))
 (let (($x996 (= $i4_foo0_1 $i4_foo0_0)))
 (let (($x992 (= $i2_foo0_1 $i2_foo0_0)))
 (let (($x988 (= $i15_main0_1 $i15_main0_0)))
 (let (($x997 (and (and (and (and true (= $i14_main0_1 $i14_main0_0)) $x988) $x992) $x996)))
 (let (($x1013 (and (and (and (and $x997 $x1000) $x1004) $x1008) $x1012)))
 (let (($x979 (= $p5_foo0_1 $p5_foo0_0)))
 (let (($x975 (= $p3_foo0_1 $p3_foo0_0)))
 (let (($x971 (= $p24_main0_1 $p24_main0_0)))
 (let (($x967 (= $p23_main0_1 $p23_main0_0)))
 (let (($x963 (= $p22_main0_1 $p22_main0_0)))
 (let (($x959 (= $p21_main0_1 $p21_main0_0)))
 (let (($x955 (= $p20_main0_1 $p20_main0_0)))
 (let (($x951 (= $p19_main0_1 $p19_main0_0)))
 (let (($x947 (= $p18_main0_1 $p18_main0_0)))
 (let (($x943 (= $p17_main0_1 $p17_main0_0)))
 (let (($x939 (= $p16_main0_1 $p16_main0_0)))
 (let (($x935 (= $p13_main0_1 $p13_main0_0)))
 (let (($x944 (and (and (and (and true (= $p12_main0_1 $p12_main0_0)) $x935) $x939) $x943)))
 (let (($x968 (and (and (and (and (and (and $x944 $x947) $x951) $x955) $x959) $x963) $x967)))
 (let (($x980 (and (and (and $x968 $x971) $x975) $x979)))
 (let (($x923 (= H_1 H3_1)))
 (let (($x920 (= AH_1 AH2_1)))
 (let (($x917 (= $p9_main0_1 $p9_main01_1)))
 (let (($x914 (= $p8_main0_1 $p8_main01_1)))
 (let (($x911 (= $p4_main0_1 $p4_main01_1)))
 (let (($x908 (= $p3_main0_1 $p3_main01_1)))
 (let (($x905 (= $p11_main0_1 $p11_main01_1)))
 (let (($x902 (= $p10_main0_1 $p10_main01_1)))
 (let (($x899 (= $i7_main0_1 $i7_main01_1)))
 (let (($x896 (= $i6_main0_1 $i6_main01_1)))
 (let (($x893 (= $i5_main0_1 $i5_main01_1)))
 (let (($x890 (= $i2_main0_1 $i2_main01_1)))
 (let (($x887 (= $i1_main0_1 $i1_main01_1)))
 (let (($x884 (= $i1_foo0_1 $i1_foo01_1)))
 (let (($x881 (= $i0_main0_1 $i0_main01_1)))
 (let (($x878 (= $i0_foo0_1 $i0_foo01_1)))
 (let (($x875 (= $M.3_1 $M.33_1)))
 (let (($x879 (and (and (and (= $M.0_1 $M.02_1) (= $M.1_1 $M.12_1)) $x875) $x878)))
 (let (($x897 (and (and (and (and (and (and $x879 $x881) $x884) $x887) $x890) $x893) $x896)))
 (let (($x915 (and (and (and (and (and (and $x897 $x899) $x902) $x905) $x908) $x911) $x914)))
 (let (($x924 (and (and (and $x915 $x917) $x920) $x923)))
 (let (($x1229 (and $x924 true)))
 (let (($x755 (or (and (< 0 $i0_foo01_1) (= $i1_foo01_1 1)) (and (not (< 0 $i0_foo01_1)) (= $i1_foo01_1 0)))))
 (let (($x757 (= $i0_foo01_1 $M.02_1)))
 (let (($x1187 (or $x757 invalidFree_0)))
 (let (($x768 (and (= H2_1 (uplus h1_1 (pt $p10_main01_1 (Pt_R_1 d5_1)))) (= H3_1 (uplus h1_1 (pt $p10_main01_1 (Pt_R_1 0)))))))
 (let (($x1188 (or $x768 invalidFree_0)))
 (let (($x779 (= $M.33_1 $p11_main01_1)))
 (let (($x1189 (or $x779 invalidFree_0)))
 (let (($x782 (= $p11_main01_1 (locadd $p10_main01_1 1))))
 (let (($x1190 (or $x782 invalidFree_0)))
 (let (($x784 (= $p10_main01_1 $M.32_1)))
 (let (($x1191 (or $x784 invalidFree_0)))
 (let (($x786 (= $M.32_1 $p8_main01_1)))
 (let (($x1192 (or $x786 invalidFree_0)))
 (let (($x788 (= $p9_main01_1 $p8_main01_1)))
 (let (($x1193 (or $x788 invalidFree_0)))
 (let (($x792 (= AH2_1 (uplus AH1_1 (pt l3_1 (Pt_R_1 3))))))
 (let (($x793 (= $p8_main01_1 l3_1)))
 (let (($x795 (= l4_1 (locadd l3_1 1))))
 (let ((?x801 (uplus H1_1 (uplus (pt l3_1 (Pt_R_1 d3_1)) (pt l4_1 (Pt_R_1 d4_1))))))
 (let (($x802 (= H2_1 ?x801)))
 (let (($x805 (and (and (and $x802 $x795) $x793) $x792)))
 (let (($x807 (= $i7_main01_1 8)))
 (let (($x1195 (or $x807 invalidFree_0)))
 (let (($x809 (= $i6_main01_1 2)))
 (let (($x1196 (or $x809 invalidFree_0)))
 (let (($x811 (= $i5_main01_1 $M.02_1)))
 (let (($x1197 (or $x811 invalidFree_0)))
 (let (($x813 (= $M.12_1 $p3_main01_1)))
 (let (($x1198 (or $x813 invalidFree_0)))
 (let (($x815 (= $p4_main01_1 $p3_main01_1)))
 (let (($x1199 (or $x815 invalidFree_0)))
 (let (($x819 (= AH1_1 (uplus AH_0 (pt l1_1 (Pt_R_1 2))))))
 (let (($x820 (= $p3_main01_1 l1_1)))
 (let (($x822 (= l2_1 (locadd l1_1 1))))
 (let ((?x828 (uplus H_0 (uplus (pt l1_1 (Pt_R_1 d1_1)) (pt l2_1 (Pt_R_1 d2_1))))))
 (let (($x829 (= H1_1 ?x828)))
 (let (($x832 (and (and (and $x829 $x822) $x820) $x819)))
 (let (($x834 (= $i2_main01_1 8)))
 (let (($x1201 (or $x834 invalidFree_0)))
 (let (($x836 (= $i1_main01_1 2)))
 (let (($x1202 (or $x836 invalidFree_0)))
 (let (($x838 (= $i0_main01_1 $M.02_1)))
 (let (($x1203 (or $x838 invalidFree_0)))
 (let (($x840 (= $M.02_1 2)))
 (let (($x1204 (or $x840 invalidFree_0)))
 (let (($x842 (= $M.31_1 nil)))
 (let (($x1205 (or $x842 invalidFree_0)))
 (let (($x844 (= $M.11_1 nil)))
 (let (($x1206 (or $x844 invalidFree_0)))
 (let (($x846 (= $M.01_1 0)))
 (let (($x1207 (or $x846 invalidFree_0)))
 (let (($x1213 (and (and (and (and (and (and $x1207 $x1206) $x1205) $x1204) $x1203) $x1202) $x1201)))
 (let (($x1218 (and (and (and (and (and $x1213 (or $x832 invalidFree_0)) $x1199) $x1198) $x1197) $x1196)))
 (let (($x1223 (and (and (and (and (and $x1218 $x1195) (or $x805 invalidFree_0)) $x1193) $x1192) $x1191)))
 (let (($x1228 (and (and (and (and (and $x1223 $x1190) $x1189) $x1188) $x1187) (or $x755 invalidFree_0))))
 (let (($x705 (= loc_0 1)))
 (let (($x1237 (=> $x705 (and (and (and (and (and $x1228 $x1229) $x980) $x1013) $x1234) $x1016))))
 (let (($x1184 (not invalidFree_0)))
 (let (($x707 (and (and (= H_0 emp) (= AH_0 emp)) $x705)))
 (and (and (and (and $x707 $x1184) $x1237) $x1257) invalidFree_2))))))))))))))))))))))))))))))))))))))))))))))))))))))))))))))))))))))))))))))))))))))))))))))))))))))))))))))))))))))))))))))))))))))))))))))))))))))))))))))))))))))))
(check-sat)
